
Gurobi 9.1.2 (win64) logging started Mon Dec  6 14:03:34 2021

Gurobi Optimizer version 9.1.2 build v9.1.2rc0 (win64)
Thread count: 8 physical cores, 8 logical processors, using up to 8 threads
Optimize a model with 1 rows, 48 columns and 47 nonzeros
Model fingerprint: 0x330fa6d3
Variable types: 1 continuous, 47 integer (47 binary)
Coefficient statistics:
  Matrix range     [1e+00, 1e+01]
  Objective range  [1e+00, 1e+00]
  Bounds range     [2e+01, 2e+01]
  RHS range        [1e+01, 1e+01]
Presolve time: 0.00s
Presolved: 1 rows, 48 columns, 47 nonzeros
Variable types: 1 continuous, 47 integer (47 binary)

Root simplex log...

Iteration    Objective       Primal Inf.    Dual Inf.      Time
       0   -1.7347949e+01   2.323894e-01   0.000000e+00     15s
       4   -1.7347949e+01   0.000000e+00   0.000000e+00     15s

Root relaxation: objective -1.734795e+01, 4 iterations, 0.00 seconds

    Nodes    |    Current Node    |     Objective Bounds      |     Work
 Expl Unexpl |  Obj  Depth IntInf | Incumbent    BestBd   Gap | It/Node Time

     0     0  -17.34795    0    1          -  -17.34795      -     -   15s
H    0     0                       0.8003038  -17.34795  2268%     -   15s
H    0     0                       0.7953061  -17.34795  2281%     -   16s
     0     0  -10.73071    0    4    0.79531  -10.73071  1449%     -   16s
     0     0   -8.57821    0    5    0.79531   -8.57821  1179%     -   16s
     0     0   -8.11142    0    7    0.79531   -8.11142  1120%     -   16s
     0     0   -8.08402    0    7    0.79531   -8.08402  1116%     -   16s
     0     0   -7.66334    0    7    0.79531   -7.66334  1064%     -   16s
H    0     0                       0.7953061   -7.66334  1064%     -   17s
     0     0   -7.52544    0    8    0.79531   -7.52544  1046%     -   17s
     0     0   -7.47397    0    8    0.79531   -7.47397  1040%     -   18s
     0     0   -6.75536    0    6    0.79531   -6.75536   949%     -   18s
     0     0   -6.74187    0    6    0.79531   -6.74187   948%     -   18s
     0     0   -6.64778    0    7    0.79531   -6.64778   936%     -   18s
     0     0   -6.64778    0    7    0.79531   -6.64778   936%     -   18s
H    0     0                       0.7935688   -6.64778   938%     -   19s
     0     2   -6.64778    0    7    0.79357   -6.64778   938%     -   19s

Cutting planes:
  Cover: 4
  MIR: 6
  StrongCG: 2
  Lazy constraints: 45

Explored 224 nodes (738 simplex iterations) in 19.97 seconds
Thread count was 8 (of 8 available processors)

Solution count 3: 0.793569 0.795306 0.800304 

Optimal solution found (tolerance 1.00e-04)
Best objective 7.935688381995e-01, best bound 7.935688381995e-01, gap 0.0000%

User-callback calls 650, time in user-callback 23.59 sec
